/*********************************************
 * OPL 12.6.0.0 Data
 * Author: Adrian Rodriguez Bazaga, Pau Rodriguez Esmerats
 * Creation Date: 21/11/2017 at 23:07:30
 *********************************************/

nNurses=166;
maxConsec=2;
maxPresence=7;
maxHours=5;
minHours=1;
demand= [52 44 56 62 44 56 62 47 32 14 4 6 9 6 11 3 8 2 7 0 35 62 29 60  ];
